&control

do_bc     = .false.
do_ic     = .true.

domain    = 1
dir_wrf  = '/glade/scratch/mizzi/PERTURB/2008061000/'
dir_moz = '/glade/p/work/mizzi/TRUNK/DART_CHEM/models/wrf_chem/run_scripts/RUN_PERT_CHEM/ICBC_PERT/MOZART/'
fn_moz  = 'h0001.nc'
def_missing_var = .true.
met_file_prefix  = 'met_em'
met_file_suffix  = '.nc'
met_file_separator= '.'

